myproject/instances/20nodes/rnd14_20.tsp
NAME : rnd14_20.tsp
TYPE : TSP
DIMENSION : 20
EDGE_WEIGHT_TYPE : EUC_2D
NODE_COORD_SECTION
1 180 31
2 916 595
3 52 662
4 61 322
5 645 120
6 424 629
7 140 29
8 152 669
9 146 354
10 342 375
11 141 966
12 709 111
13 879 62
14 348 195
15 87 18
16 701 984
17 849 410
18 366 650
19 95 186
20 516 581
