myproject/instances/20nodes/rnd14_20.opt.tour
NAME : rnd14_20.tsp.tsp.opt.tour
TYPE : TOUR
DIMENSION : 20
TOUR_SECTION
1
4
12
18
10
5
13
20
8
19
7
14
2
3
17
15
11
9
16
6
-1